(set-info :smt-lib-version 2.6)
(set-logic QF_UFLRA)
(set-info :source |
MathSat group

|)
(set-info :category "random")
(set-info :status unsat)
(declare-fun x0 () Real)
(declare-fun x1 () Real)
(declare-fun x2 () Real)
(declare-fun x3 () Real)
(declare-fun x4 () Real)
(declare-fun x5 () Real)
(declare-fun x6 () Real)
(declare-fun x7 () Real)
(declare-fun x8 () Real)
(declare-fun x9 () Real)
(declare-fun x10 () Real)
(declare-fun x11 () Real)
(declare-fun x12 () Real)
(declare-fun x13 () Real)
(declare-fun x14 () Real)
(declare-fun x15 () Real)
(declare-fun x16 () Real)
(declare-fun x17 () Real)
(declare-fun x18 () Real)
(declare-fun x19 () Real)
(declare-fun x20 () Real)
(declare-fun x21 () Real)
(declare-fun x22 () Real)
(declare-fun x23 () Real)
(declare-fun x24 () Real)
(declare-fun x25 () Real)
(declare-fun x26 () Real)
(declare-fun x27 () Real)
(declare-fun x28 () Real)
(declare-fun x29 () Real)
(declare-fun x30 () Real)
(declare-fun x31 () Real)
(declare-fun x32 () Real)
(declare-fun x33 () Real)
(declare-fun x34 () Real)
(declare-fun x35 () Real)
(declare-fun x36 () Real)
(declare-fun x37 () Real)
(declare-fun x38 () Real)
(declare-fun x39 () Real)
(declare-fun f0_1 (Real) Real)
(declare-fun f0_2 (Real Real) Real)
(declare-fun f0_3 (Real Real Real) Real)
(declare-fun f0_4 (Real Real Real Real) Real)
(declare-fun P0 () Bool)
(declare-fun P1 () Bool)
(declare-fun P2 () Bool)
(declare-fun P3 () Bool)
(declare-fun P4 () Bool)
(declare-fun P5 () Bool)
(declare-fun P6 () Bool)
(declare-fun P7 () Bool)
(declare-fun P8 () Bool)
(declare-fun P9 () Bool)
(declare-fun P10 () Bool)
(declare-fun P11 () Bool)
(declare-fun P12 () Bool)
(declare-fun P13 () Bool)
(declare-fun P14 () Bool)
(declare-fun P15 () Bool)
(declare-fun P16 () Bool)
(declare-fun P17 () Bool)
(declare-fun P18 () Bool)
(declare-fun P19 () Bool)
(declare-fun P20 () Bool)
(declare-fun P21 () Bool)
(declare-fun P22 () Bool)
(declare-fun P23 () Bool)
(declare-fun P24 () Bool)
(declare-fun P25 () Bool)
(declare-fun P26 () Bool)
(declare-fun P27 () Bool)
(declare-fun P28 () Bool)
(declare-fun P29 () Bool)
(declare-fun P30 () Bool)
(declare-fun P31 () Bool)
(declare-fun P32 () Bool)
(declare-fun P33 () Bool)
(declare-fun P34 () Bool)
(declare-fun P35 () Bool)
(declare-fun P36 () Bool)
(declare-fun P37 () Bool)
(declare-fun P38 () Bool)
(declare-fun P39 () Bool)
(assert (let ((?v_34 (* 45 x13)) (?v_66 (<= (- (- (* 32 x22) (* 42 x23)) (* 7 x13)) 41)) (?v_36 (<= (- (+ (* 32 x1) (* 23 x11)) (* 26 x26)) 14)) (?v_15 (distinct (+ (- (* 10 x1) (* 29 x8)) (* 21 x4)) 53)) (?v_186 (<= (+ (- (* 53 x34) (* 45 x39)) (* 27 x35)) 46)) (?v_56 (* 3 x10)) (?v_185 (f0_1 x28))) (let ((?v_198 (= ?v_185 (f0_2 x31 x39))) (?v_68 (distinct (f0_1 x22) x21)) (?v_117 (= (f0_2 x24 x39) (f0_1 x12))) (?v_33 (distinct x26 (f0_2 x24 x33))) (?v_25 (distinct (f0_2 x6 x8) x8)) (?v_60 (distinct (f0_2 x11 x21) x37)) (?v_24 (f0_1 x25))) (let ((?v_55 (= ?v_24 x11)) (?v_85 (= x18 x32)) (?v_62 (= x7 ?v_24)) (?v_10 (f0_1 x18))) (let ((?v_16 (distinct (f0_2 x22 x19) ?v_10)) (?v_8 (= (f0_2 x17 x11) (f0_2 x15 x34))) (?v_70 (= (f0_2 x21 x9) x22)) (?v_123 (distinct (f0_1 x7) x18)) (?v_63 (distinct (f0_1 x3) (f0_1 x8))) (?v_3 (= x10 (f0_1 x20))) (?v_51 (= (f0_1 x33) (f0_2 x10 x37))) (?v_119 (distinct (f0_2 x34 x23) (f0_2 x25 x16))) (?v_122 (distinct (f0_2 x1 x33) ?v_185)) (?v_83 (distinct (f0_2 x0 x15) (f0_2 x34 x0))) (?v_93 (distinct x27 (f0_1 x9))) (?v_102 (distinct (f0_2 x37 x0) x38)) (?v_2 (distinct x6 (f0_2 x10 x17))) (?v_43 (= x3 (f0_1 x30))) (?v_115 (distinct ?v_24 (f0_1 x6))) (?v_38 (= (f0_2 x2 x9) x25)) (?v_138 (distinct x27 (f0_1 x35))) (?v_130 (= x39 x1)) (?v_80 (distinct x0 (f0_1 x16))) (?v_71 (distinct (f0_2 x6 x39) (f0_1 x1))) (?v_147 (= (f0_2 x23 x30) (f0_2 x15 x19))) (?v_151 (= ?v_10 x18)) (?v_125 (= (f0_2 x12 x3) (f0_2 x5 x17))) (?v_107 (distinct x2 (f0_2 x22 x20))) (?v_23 (distinct (f0_1 x5) (f0_2 x3 x0))) (?v_78 (= (f0_2 x1 x10) (f0_1 x23))) (?v_100 (distinct (f0_2 x1 x35) (f0_2 x17 x32))) (?v_44 (= (f0_1 x26) (f0_1 x39))) (?v_64 (= (f0_1 x34) (f0_2 x11 x38))) (?v_18 (= x23 (f0_2 x34 x8))) (?v_136 (distinct (f0_2 x39 x9) (f0_2 x20 x21)))) (let ((?v_141 (not ?v_2)) (?v_9 (not P27)) (?v_1 (not P8)) (?v_7 (not P13)) (?v_5 (not ?v_3)) (?v_82 (not P30)) (?v_131 (not ?v_16)) (?v_11 (not P23)) (?v_157 (not P29)) (?v_19 (not ?v_68)) (?v_168 (not P25)) (?v_26 (not ?v_125)) (?v_35 (not ?v_23)) (?v_30 (not ?v_151)) (?v_88 (not P17)) (?v_76 (not P3)) (?v_69 (not ?v_138)) (?v_171 (not ?v_15)) (?v_14 (not ?v_66)) (?v_58 (not P10)) (?v_32 (not P11)) (?v_156 (not P33)) (?v_118 (not P9)) (?v_84 (not P4)) (?v_47 (not P14)) (?v_114 (not ?v_18)) (?v_142 (not ?v_70)) (?v_29 (not P32)) (?v_133 (not P38)) (?v_154 (not P1)) (?v_103 (not ?v_33)) (?v_86 (not ?v_43)) (?v_59 (not ?v_130)) (?v_39 (not ?v_44)) (?v_160 (not ?v_186)) (?v_54 (not P22)) (?v_148 (not ?v_38)) (?v_48 (not ?v_85)) (?v_196 (not P0)) (?v_81 (not ?v_25)) (?v_166 (not P39)) (?v_140 (not ?v_36)) (?v_108 (not P28)) (?v_182 (not ?v_8)) (?v_120 (not P21)) (?v_101 (not ?v_55)) (?v_197 (not ?v_83)) (?v_190 (not ?v_78)) (?v_162 (not ?v_60)) (?v_110 (not ?v_62)) (?v_132 (not ?v_64)) (?v_73 (not P37)) (?v_144 (not ?v_71)) (?v_79 (not P16)) (?v_155 (not ?v_93)) (?v_150 (not P19)) (?v_167 (not ?v_80)) (?v_188 (not ?v_117)) (?v_112 (not P34)) (?v_180 (not ?v_100)) (?v_124 (not ?v_102)) (?v_178 (not P12)) (?v_164 (not P7)) (?v_177 (not ?v_51)) (?v_137 (not P20)) (?v_179 (not ?v_63)) (?v_174 (not P15)) (?v_183 (not P5)) (?v_189 (not ?v_115)) (?v_127 (not ?v_122)) (?v_172 (not ?v_123)) (?v_159 (not P2)) (?v_165 (not P6)) (?v_173 (not ?v_147)) (?v_158 (not ?v_107)) (?v_181 (not P35)) (?v_200 (not P24)) (?v_202 (not P18)) (?v_191 (not ?v_119)) (?v_201 (not ?v_198)) (?v_41 (< (- (* 50 x33) 0) 50)) (?v_74 (< (+ (* 32 x21) (* 9 x36) (* 5 x38)) 52))) (let ((?v_152 (not ?v_74)) (?v_42 (= (+ (* 30 x13) (* 51 x37) (* 9 x17)) 18)) (?v_175 (< (+ (* 28 x30) (* 33 x20) (* 31 x9)) 47)) (?v_109 (not ?v_41)) (?v_57 (< (+ ?v_56 (* 12 x11)) 29))) (let ((?v_135 (not ?v_57)) (?v_146 (not ?v_42)) (?v_169 (<= (+ (* 6 x0) (* 19 x4) (* 36 x16)) 51))) (let ((?v_199 (not ?v_169)) (?v_193 (not ?v_175)) (?v_17 (< (+ (* (- 53) x36) (* 14 x15) (* 13 x19)) 42)) (?v_4 (< (- (- (* (- 41) x15) (* 55 x18)) (* 20 x5)) 28))) (let ((?v_87 (not ?v_4)) (?v_0 (< (- (- (* (- 1) x17) (* 33 x32)) (* 29 x9)) 1))) (let ((?v_12 (not ?v_0)) (?v_40 (= (- (+ (* 25 x39) (* 16 x29)) (* 44 x11)) (- 41))) (?v_13 (< (+ (* (- 30) x33) (* 30 x35) (* 31 x10)) (- 16))) (?v_22 (<= (+ (- (* (- 11) x37) (* 2 x10)) (* 42 x31)) (- 29))) (?v_49 (<= (- (+ (* (- 47) x34) (* 53 x17)) (* 50 x25)) (- 20)))) (let ((?v_95 (not ?v_49)) (?v_6 (<= (+ (- (* 42 x39) (* 5 x2)) (* 6 x3)) (- 20))) (?v_45 (<= (- (+ (* (- 39) x22) (* 39 x27)) (* 56 x35)) (- 36)))) (let ((?v_134 (not ?v_45)) (?v_61 (not ?v_6)) (?v_21 (<= (- (+ (* (- 45) x31) (* 41 x10)) (* 10 x19)) (- 1))) (?v_27 (distinct (- (+ (* (- 7) x9) (* 49 x4)) ?v_34) (- 58))) (?v_31 (<= (- (+ (* (- 19) x16) x36) (* 51 x32)) (- 10))) (?v_187 (not ?v_13)) (?v_65 (<= (- (+ x10 (* 36 x8)) (* 33 x16)) (- 55))) (?v_28 (= (- (- 0 (* 2 x18)) 0) (- 32)))) (let ((?v_77 (not ?v_28)) (?v_53 (< (+ (* (- 46) x23) (* 33 x3) (* 30 x4)) 4)) (?v_20 (< (+ (* (- 7) x28) (* 19 x28) (* 9 x4)) 38)) (?v_75 (not ?v_17)) (?v_94 (< (+ (- (* (- 14) x3) 0) (* 23 x3)) 6)) (?v_67 (< (- (+ (* (- 1) x15) (* 31 x35)) (* 42 x34)) 16)) (?v_163 (not ?v_22)) (?v_37 (= (+ (* 44 x39) (* 42 x5) (* 30 x10)) (- 27))) (?v_89 (distinct (- (* 5 x5) (* 41 x38)) (- 20)))) (let ((?v_105 (not ?v_89)) (?v_92 (distinct (+ (- (* (- 6) x23) (* 53 x18)) (* 47 x32)) 46)) (?v_52 (not ?v_27)) (?v_97 (not ?v_31)) (?v_111 (< (+ (- (* (- 48) x28) (* 15 x28)) (* 41 x18)) 7)) (?v_50 (<= (- (- ?v_34 (* 22 x14)) (* 26 x3)) (- 3))) (?v_128 (<= (- (+ (* (- 19) x8) (* 27 x29)) (* 54 x17)) 39)) (?v_116 (not ?v_37)) (?v_46 (not ?v_40)) (?v_96 (not ?v_21))) (let ((?v_129 (not ?v_50)) (?v_99 (not ?v_53)) (?v_91 (< (- (- ?v_56 (* 20 x11)) (* 39 x24)) (- 50))) (?v_161 (<= (- (- (* (- 10) x19) (* 28 x13)) (* 28 x22)) 37))) (let ((?v_104 (not ?v_161)) (?v_149 (or ?v_162 ?v_61)) (?v_126 (distinct (+ (* (- 45) x2) (* 31 x4) (* 51 x15)) 39)) (?v_72 (distinct (+ (* 11 x36) (* 3 x26) (* 4 x21)) (- 21)))) (let ((?v_113 (not ?v_72)) (?v_192 (< (+ (- (* (- 52) x29) (* 57 x18)) (* 32 x36)) 24))) (let ((?v_90 (not ?v_192)) (?v_145 (not ?v_91)) (?v_106 (not ?v_92)) (?v_143 (not ?v_65)) (?v_121 (< (+ (* (- 11) x26) (* 47 x16) (* 37 x1)) 35))) (let ((?v_98 (not ?v_121)) (?v_139 (not ?v_20)) (?v_176 (not ?v_126)) (?v_153 (not ?v_128))) (let ((?v_195 (or ?v_99 ?v_153)) (?v_170 (not ?v_94)) (?v_194 (not ?v_67)) (?v_184 (not ?v_111))) (and (and (and (and (and (and (and (and (and (and (and (and (and (and (and (and (and (and (and (and (and (and (and (and (and (and (and (and (and (and (and (and (and (and (and (and (and (and (and (and (and (and (and (and (and (and (and (and (and (and (and (and (and (and (and (and (and (and (and (and (and (and (and (and (and (and (and (and (and (and (and (and (and (and (and (and (and (and (and (and (and (and (and (and (and (and (and (and (and (and (and (and (and (and (and (and (and (and (and (and (and (and (and (and (and (and (and (and (and (and (and (and (and (and (and (and (and (and (and (and (and (and (and (and (and (and (and (and (and (and (and (and (and (and (and (and (and (and (and (and (and (and (and (and (and (and (and (and (and (and (and (and (and (and (and (and (and (and (and (and (and (and (and (and (and (and (and (and (and (and (and (and (and (and (and (and (and (and (and (and (and (and (and (and (and (and (and (and (and (and (and (and (and (and (and (and (and (and (and (and (and (and (and (and (and (and (and (and (and (and (and (and (and (and (and (and (and (and (and (and (and (and (and (and (and (and (and (and (and (and (and (and (and (and (and (and (and (and (and (and (and (and (and (and (and (and (and (and (and (and (and (and (and (and (and (and (and (and (and (and (and (and (and (and (and (and (and (and (and (and (and (and (and (and (and (and (and (and (and (and (and (and (and (and (and (and (and (and (and (and (and (and (and (and (and (and (and (and (and (and (and (and (and (and (and (and (and (and (and (and (and (and (and (and (and (and (and (and (and (and (and (and (and (and (and (and (and (and (and (and (and (and (and (and (and (and (and (and (and (and (and (and (and (and (and (and (and (and (and (and (and (and (and (and (and (and (and (and (and (and (and (and (and (and (and (and (and (and (and (and (and (and (and (and (and (and (and (and (and (and (and (and (and (and (and (and (and (and (and (and (and (and (and (and (and (and (and (and (and (and (and (and (and (and (and (and (and (and (and (and (and (and (and (and (and (and (and (and (and (and (and (and (and (and (and (and (and (and (and (and (and (and (and (and (and (and (and (and (and (and (and (and (and (and (and (and (and (and (and (and (and (and (and (and (and (and (and (and (and (and (and (and (and (and (and (and (and (and (and (and (and (and (and (and (and (and (and (and (and (or (or ?v_17 ?v_87) ?v_12) (or (or ?v_141 ?v_55) ?v_0)) (or (or ?v_102 ?v_9) ?v_1)) (or (or ?v_7 ?v_40) ?v_3)) (or (or ?v_8 ?v_1) ?v_13)) (or (or ?v_60 ?v_22) ?v_2)) (or (or ?v_5 ?v_82) ?v_95)) (or (or ?v_131 P34) ?v_11)) (or (or ?v_157 ?v_4) ?v_6)) (or (or ?v_19 P24) P1)) (or (or ?v_168 ?v_134) ?v_26)) (or (or ?v_5 ?v_61) ?v_7)) (or (or ?v_8 ?v_9) P17)) (or (or ?v_35 ?v_30) ?v_21)) (or (or ?v_88 ?v_76) ?v_11)) (or (or (not P26) ?v_27) ?v_41)) (or (or P3 ?v_69) (not ?v_136))) (or (or ?v_12 ?v_38) ?v_31)) (or (or ?v_171 ?v_18) ?v_14)) (or (or ?v_187 ?v_14) ?v_58)) (or (or ?v_65 ?v_32) ?v_77)) (or (or ?v_53 ?v_122) P30)) (or (or ?v_15 ?v_20) ?v_3)) (or (or ?v_156 ?v_118) ?v_25)) (or (or P33 ?v_16) ?v_123)) (or (or P15 ?v_119) ?v_84)) (or (or ?v_75 ?v_47) ?v_94)) (or (or ?v_114 ?v_152) P27)) (or (or P21 ?v_19) ?v_20)) (or (or ?v_21 ?v_67) ?v_142)) (or (or ?v_163 ?v_29) P18)) (or (or ?v_133 ?v_23) ?v_42)) (or (or ?v_175 ?v_37) ?v_62)) (or (or ?v_14 P16) ?v_25)) (or (or ?v_26 ?v_105) ?v_92)) (or (or ?v_52 ?v_28) ?v_29)) (or (or ?v_154 ?v_103) ?v_86)) (or (or ?v_36 ?v_59) P28)) (or (or ?v_30 ?v_5) ?v_1)) (or (or ?v_80 P2) ?v_39)) (or (or ?v_97 ?v_111) ?v_32)) (or (or P6 ?v_28) ?v_33)) (or (or ?v_50 ?v_35) ?v_128)) (or (or ?v_160 ?v_36) P37)) (or (or P17 ?v_54) ?v_13)) (or (or ?v_116 ?v_148) ?v_39)) (or (or ?v_46 ?v_109) ?v_42)) (or (or ?v_43 ?v_48) P1)) (or (or ?v_6 ?v_44) ?v_45)) (or (or P16 ?v_46) P11)) (or (or P29 ?v_29) ?v_51)) (or (or ?v_17 ?v_47) ?v_48)) (or (or ?v_196 ?v_81) ?v_71)) (or (or P14 P23) ?v_166)) (or (or P23 ?v_49) ?v_140)) (or (or ?v_96 ?v_129) ?v_51)) (or (or ?v_108 ?v_26) ?v_52)) (or (or ?v_182 ?v_57) ?v_99)) (or (or ?v_54 ?v_120) ?v_25)) (or (or P10 ?v_101) ?v_91)) (or (or ?v_135 P20) P37)) (or (or P31 ?v_104) ?v_197)) (or (or ?v_190 P6) ?v_107)) (or (or ?v_58 ?v_59) ?v_64)) (or ?v_149 P39)) (or (or ?v_8 ?v_110) ?v_63)) (or (or ?v_126 ?v_25) ?v_2)) (or (or P8 ?v_63) ?v_132)) (or (or ?v_65 ?v_66) ?v_73)) (or (or ?v_67 ?v_68) ?v_23)) (or (or ?v_72 ?v_69) P9)) (or (or ?v_70 P12) ?v_144)) (or (or ?v_79 ?v_53) ?v_55)) (or (or ?v_113 ?v_11) ?v_29)) (or (or ?v_73 P34) P28)) (or (or ?v_1 ?v_155) ?v_150)) (or (or ?v_13 ?v_74) ?v_43)) (or (or ?v_47 ?v_51) ?v_75)) (or (or ?v_5 ?v_76) ?v_27)) (or (or ?v_77 ?v_72) ?v_78)) (or (or ?v_79 ?v_32) ?v_147)) (or (or P22 P33) ?v_75)) (or (or P16 ?v_167) ?v_81)) (or (or ?v_146 ?v_32) P31)) (or (or ?v_188 ?v_82) ?v_43)) (or (or ?v_83 ?v_84) ?v_15)) (or (or ?v_90 ?v_85) P14)) (or (or ?v_86 ?v_15) ?v_26)) (or (or ?v_86 ?v_87) ?v_88)) (or (or ?v_89 ?v_54) ?v_50)) (or (or ?v_90 ?v_145) ?v_67)) (or (or P33 ?v_106) ?v_12)) (or (or ?v_93 ?v_100) ?v_94)) (or (or ?v_112 ?v_1) ?v_16)) (or (or ?v_8 ?v_50) ?v_95)) (or (or ?v_91 P37) ?v_96)) (or (or ?v_97 ?v_36) ?v_82)) (or (or ?v_69 ?v_90) ?v_37)) (or (or ?v_143 ?v_98) ?v_59)) (or (or ?v_98 ?v_99) ?v_180)) (or (or ?v_51 ?v_78) ?v_48)) (or (or ?v_63 ?v_91) ?v_44)) (or (or ?v_11 ?v_7) ?v_61)) (or (or ?v_90 ?v_101) ?v_57)) (or (or P3 ?v_58) ?v_0)) (or (or ?v_52 ?v_124) ?v_45)) (or (or ?v_37 ?v_52) ?v_99)) (or (or P4 ?v_48) ?v_93)) (or (or P36 ?v_103) ?v_0)) (or (or ?v_104 P7) P16)) (or (or ?v_11 ?v_65) ?v_105)) (or (or P1 ?v_106) ?v_178)) (or (or ?v_85 ?v_45) P12)) (or (or ?v_164 ?v_107) ?v_177)) (or (or ?v_108 ?v_169) ?v_109)) (or (or ?v_14 ?v_69) ?v_5)) (or (or ?v_110 ?v_45) P19)) (or (or ?v_137 ?v_90) ?v_76)) (or (or ?v_111 P3) ?v_179)) (or (or ?v_112 ?v_113) ?v_25)) (or (or ?v_50 P33) ?v_20)) (or (or ?v_114 P35) ?v_115)) (or (or ?v_4 ?v_107) ?v_174)) (or (or ?v_102 ?v_39) ?v_183)) (or (or ?v_113 ?v_189) ?v_116)) (or (or ?v_117 ?v_118) P7)) (or (or ?v_62 P18) P15)) (or (or P21 ?v_50) ?v_5)) (or (or ?v_94 ?v_101) ?v_119)) (or (or ?v_114 ?v_120) ?v_121)) (or (or ?v_66 ?v_41) P35)) (or (or ?v_28 ?v_127) ?v_172)) (or (or ?v_159 ?v_33) ?v_124)) (or (or ?v_139 ?v_54) ?v_46)) (or (or ?v_125 ?v_53) ?v_5)) (or (or ?v_176 ?v_127) ?v_42)) (or (or ?v_128 ?v_165) P11)) (or (or ?v_13 ?v_15) ?v_126)) (or (or ?v_127 ?v_119) ?v_36)) (or (or P39 ?v_129) ?v_130)) (or (or ?v_131 P38) ?v_101)) (or (or ?v_37 ?v_51) P0)) (or (or ?v_65 ?v_42) ?v_83)) (or (or ?v_132 ?v_97) ?v_22)) (or (or P1 ?v_1) ?v_133)) (or (or ?v_134 ?v_63) ?v_6)) (or (or ?v_135 ?v_30) ?v_136)) (or ?v_195 ?v_37)) (or (or ?v_137 ?v_63) ?v_69)) (or (or ?v_114 ?v_138) P12)) (or (or P26 ?v_170) ?v_12)) (or (or ?v_139 ?v_140) ?v_141)) (or (or ?v_98 ?v_14) P29)) (or (or ?v_142 ?v_143) ?v_144)) (or (or ?v_145 ?v_146) ?v_194)) (or (or ?v_25 P5) ?v_134)) (or (or ?v_48 ?v_173) ?v_17)) (or (or ?v_148 ?v_145) ?v_71)) (or (or ?v_115 P6) ?v_140)) (or ?v_149 P19)) (or (or ?v_25 P38) ?v_141)) (or (or ?v_83 ?v_60) ?v_118)) (or (or ?v_150 ?v_151) ?v_152)) (or (or ?v_69 ?v_61) ?v_51)) (or (or ?v_153 ?v_154) ?v_26)) (or (or ?v_138 ?v_39) ?v_93)) (or (or ?v_155 ?v_137) ?v_111)) (or (or P26 ?v_21) ?v_90)) (or (or ?v_156 P16) ?v_158)) (or (or ?v_88 ?v_47) ?v_115)) (or (or P23 ?v_157) ?v_142)) (or (or P5 ?v_148) ?v_27)) (or (or ?v_57 ?v_37) ?v_158)) (or (or ?v_39 ?v_159) ?v_113)) (or (or ?v_84 ?v_35) ?v_140)) (or (or ?v_126 ?v_128) ?v_160)) (or (or ?v_122 ?v_161) ?v_46)) (or (or P3 ?v_162) P32)) (or (or ?v_72 ?v_143) ?v_163)) (or (or ?v_76 ?v_111) ?v_113)) (or (or ?v_85 P35) ?v_40)) (or (or ?v_114 ?v_164) ?v_157)) (or (or ?v_105 ?v_143) ?v_93)) (or (or ?v_101 ?v_139) P26)) (or (or ?v_129 ?v_165) ?v_37)) (or (or P32 ?v_181) ?v_141)) (or (or ?v_159 ?v_166) ?v_134)) (or (or P8 ?v_167) ?v_3)) (or (or ?v_19 ?v_73) ?v_58)) (or (or ?v_118 ?v_168) P23)) (or (or P13 ?v_199) P18)) (or (or ?v_170 ?v_171) ?v_14)) (or (or ?v_163 ?v_159) ?v_65)) (or (or ?v_120 P30) ?v_170)) (or (or P20 P18) P19)) (or (or ?v_38 ?v_101) ?v_97)) (or (or ?v_172 ?v_63) ?v_155)) (or (or ?v_55 ?v_102) P33)) (or (or ?v_118 P37) P2)) (or (or ?v_49 ?v_118) ?v_76)) (or (or ?v_33 ?v_132) ?v_133)) (or (or ?v_45 ?v_165) ?v_98)) (or (or ?v_20 ?v_31) ?v_48)) (or (or ?v_117 ?v_7) ?v_97)) (or (or ?v_173 ?v_57) ?v_174)) (or (or ?v_0 ?v_175) P31)) (or (or ?v_150 P11) ?v_6)) (or (or P23 P7) ?v_127)) (or (or ?v_141 ?v_13) P12)) (or (or ?v_200 ?v_172) ?v_41)) (or (or ?v_170 ?v_25) P8)) (or (or ?v_105 ?v_25) ?v_193)) (or (or ?v_77 ?v_176) ?v_104)) (or (or ?v_135 ?v_36) ?v_77)) (or (or P39 ?v_41) ?v_112)) (or (or ?v_26 ?v_155) ?v_55)) (or (or ?v_60 ?v_118) ?v_148)) (or (or ?v_177 P18) ?v_3)) (or (or P11 ?v_140) ?v_202)) (or (or ?v_2 ?v_99) ?v_48)) (or (or ?v_85 ?v_131) P5)) (or (or ?v_28 ?v_9) ?v_30)) (or (or ?v_22 P24) ?v_142)) (or (or ?v_184 P9) ?v_49)) (or (or ?v_178 P19) ?v_17)) (or (or ?v_6 ?v_31) ?v_159)) (or (or P13 ?v_118) ?v_14)) (or (or ?v_98 ?v_138) ?v_134)) (or (or ?v_159 ?v_175) ?v_179)) (or (or ?v_1 ?v_26) ?v_176)) (or (or ?v_58 P23) P29)) (or (or P25 ?v_73) ?v_63)) (or (or ?v_69 ?v_130) ?v_13)) (or (or P19 ?v_1) ?v_152)) (or (or ?v_180 ?v_41) ?v_76)) (or (or ?v_101 ?v_3) ?v_111)) (or (or ?v_38 P10) ?v_53)) (or (or P22 ?v_172) P1)) (or (or ?v_178 ?v_129) ?v_36)) (or (or ?v_181 ?v_73) ?v_36)) (or (or ?v_144 ?v_30) ?v_178)) (or (or ?v_73 ?v_70) ?v_21)) (or (or ?v_12 ?v_1) ?v_182)) (or (or ?v_148 ?v_5) ?v_137)) (or (or P4 (not P31)) ?v_86)) (or (or ?v_18 ?v_8) ?v_183)) (or (or P7 ?v_146) ?v_19)) (or (or ?v_48 P28) ?v_138)) (or (or ?v_117 ?v_117) ?v_59)) (or (or ?v_146 ?v_166) ?v_137)) (or (or ?v_105 P22) ?v_94)) (or (or P22 ?v_109) ?v_184)) (or (or ?v_173 ?v_146) ?v_96)) (or (or ?v_124 ?v_70) P20)) (or (or ?v_48 P9) P29)) (or (or P39 P2) ?v_129)) (or (or ?v_151 ?v_130) ?v_3)) (or (or ?v_72 ?v_133) ?v_92)) (or (or P35 ?v_151) ?v_50)) (or (or ?v_47 ?v_4) ?v_135)) (or (or ?v_18 ?v_169) ?v_29)) (or (or ?v_78 P34) ?v_51)) (or (or ?v_48 ?v_21) ?v_13)) (or (or ?v_99 ?v_191) ?v_80)) (or (or ?v_198 ?v_115) ?v_41)) (or (or P11 ?v_112) P20)) (or (or P0 ?v_13) ?v_101)) (or (or ?v_109 ?v_45) P1)) (or (or ?v_55 ?v_145) ?v_104)) (or (or ?v_141 ?v_139) ?v_186)) (or (or ?v_78 ?v_141) ?v_169)) (or (or ?v_175 P1) ?v_40)) (or (or ?v_112 ?v_38) ?v_173)) (or (or ?v_57 ?v_88) P32)) (or (or ?v_131 ?v_170) ?v_92)) (or (or ?v_130 ?v_36) ?v_15)) (or (or ?v_76 ?v_22) ?v_46)) (or (or ?v_177 P39) ?v_11)) (or (or ?v_147 P3) ?v_64)) (or (or ?v_172 ?v_82) ?v_164)) (or (or ?v_173 ?v_14) ?v_110)) (or (or ?v_187 ?v_70) ?v_188)) (or (or ?v_189 ?v_39) ?v_147)) (or (or ?v_5 P19) ?v_12)) (or (or ?v_59 ?v_124) ?v_159)) (or (or P1 ?v_65) ?v_190)) (or (or ?v_43 ?v_119) ?v_66)) (or (or ?v_143 P21) ?v_102)) (or (or ?v_114 P17) ?v_73)) (or (or ?v_83 ?v_104) ?v_50)) (or (or ?v_191 ?v_190) ?v_163)) (or (or ?v_0 ?v_111) ?v_58)) (or (or ?v_137 P32) ?v_117)) (or (or ?v_158 ?v_5) ?v_67)) (or (or ?v_166 ?v_2) ?v_88)) (or (or P34 ?v_119) ?v_20)) (or (or ?v_46 ?v_172) ?v_2)) (or (or ?v_155 ?v_4) P33)) (or (or P23 ?v_102) P12)) (or (or ?v_0 ?v_124) ?v_145)) (or (or ?v_85 ?v_122) ?v_61)) (or (or ?v_165 ?v_70) ?v_96)) (or (or ?v_115 ?v_163) ?v_138)) (or (or P34 ?v_142) ?v_132)) (or (or ?v_165 P36) ?v_164)) (or (or ?v_156 ?v_46) ?v_111)) (or (or ?v_177 P30) ?v_191)) (or (or ?v_26 ?v_15) ?v_172)) (or (or ?v_81 P18) P25)) (or (or ?v_134 ?v_19) ?v_180)) (or (or P12 P24) P9)) (or (or ?v_118 P21) ?v_33)) (or (or ?v_91 ?v_40) ?v_155)) (or (or ?v_123 ?v_141) P27)) (or (or P20 ?v_178) ?v_58)) (or (or ?v_143 ?v_80) ?v_60)) (or (or ?v_169 P34) ?v_57)) (or (or ?v_180 P25) ?v_136)) (or (or ?v_150 ?v_32) P22)) (or (or ?v_146 ?v_28) ?v_21)) (or (or ?v_45 ?v_82) ?v_179)) (or (or ?v_3 ?v_69) ?v_67)) (or (or ?v_89 ?v_78) ?v_126)) (or (or ?v_51 ?v_178) P39)) (or (or P4 ?v_111) ?v_66)) (or (or ?v_115 ?v_192) P15)) (or (or ?v_79 ?v_38) ?v_81)) (or (or ?v_43 ?v_103) P11)) (or (or P30 ?v_67) ?v_192)) (or (or P20 ?v_52) ?v_37)) (or (or ?v_100 ?v_169) ?v_39)) (or (or P20 ?v_163) ?v_143)) (or (or P2 ?v_2) P25)) (or (or ?v_2 ?v_140) ?v_157)) (or (or ?v_143 ?v_137) ?v_48)) (or (or ?v_30 ?v_89) ?v_72)) (or (or ?v_160 ?v_66) P36)) (or (or ?v_79 ?v_63) ?v_40)) (or (or ?v_112 ?v_142) ?v_86)) (or (or ?v_43 ?v_140) ?v_55)) (or (or ?v_179 ?v_32) P27)) (or (or ?v_139 ?v_159) ?v_27)) (or (or ?v_137 ?v_7) ?v_101)) (or (or ?v_193 ?v_150) ?v_68)) (or (or ?v_162 ?v_65) P19)) (or (or ?v_188 ?v_5) ?v_143)) (or (or P36 ?v_191) ?v_65)) (or (or ?v_87 ?v_67) ?v_135)) (or (or P7 ?v_88) ?v_32)) (or (or ?v_52 ?v_138) ?v_136)) (or (or ?v_140 ?v_5) ?v_68)) (or (or ?v_183 ?v_100) ?v_0)) (or (or ?v_18 ?v_150) ?v_41)) (or (or ?v_8 ?v_15) ?v_82)) (or (or ?v_194 ?v_79) ?v_6)) (or (or P17 P13) ?v_25)) (or (or ?v_161 P29) P12)) (or ?v_195 P36)) (or (or P30 ?v_31) ?v_60)) (or (or ?v_182 ?v_188) ?v_102)) (or (or P35 ?v_173) ?v_194)) (or (or ?v_16 ?v_29) ?v_76)) (or (or P2 ?v_147) ?v_165)) (or (or ?v_12 ?v_90) ?v_184)) (or (or ?v_64 P9) ?v_57)) (or (or ?v_92 ?v_21) ?v_103)) (or (or ?v_108 P38) ?v_32)) (or (or ?v_64 P10) ?v_84)) (or (or ?v_138 P18) P35)) (or (or ?v_184 ?v_136) ?v_191)) (or (or P21 ?v_86) ?v_191)) (or (or ?v_8 P27) ?v_11)) (or (or P34 ?v_70) ?v_55)) (or (or ?v_88 ?v_177) ?v_33)) (or (or ?v_190 ?v_46) ?v_187)) (or (or ?v_156 ?v_67) ?v_16)) (or (or P10 P19) ?v_91)) (or (or ?v_125 ?v_90) ?v_122)) (or (or ?v_193 ?v_28) ?v_160)) (or (or ?v_142 ?v_0) ?v_196)) (or (or ?v_197 ?v_169) ?v_63)) (or (or ?v_189 ?v_146) ?v_9)) (or (or ?v_103 ?v_125) ?v_109)) (or (or P35 P22) ?v_67)) (or (or ?v_20 ?v_8) ?v_71)) (or (or ?v_64 ?v_37) ?v_0)) (or (or ?v_108 ?v_8) ?v_117)) (or (or P27 ?v_106) ?v_58)) (or (or ?v_66 ?v_191) ?v_41)) (or (or ?v_70 ?v_114) ?v_76)) (or (or P32 ?v_187) ?v_98)) (or (or ?v_117 P8) ?v_159)) (or (or ?v_46 ?v_191) ?v_111)) (or (or ?v_68 ?v_6) P8)) (or (or ?v_17 P1) ?v_138)) (or (or ?v_136 ?v_37) ?v_142)) (or (or ?v_89 ?v_163) ?v_28)) (or (or ?v_117 ?v_157) ?v_64)) (or (or ?v_47 ?v_32) ?v_14)) (or (or ?v_95 ?v_70) ?v_7)) (or (or ?v_83 ?v_129) ?v_177)) (or (or ?v_175 P3) P11)) (or (or P13 ?v_131) P21)) (or (or ?v_126 ?v_105) ?v_61)) (or (or ?v_68 P28) ?v_52)) (or (or ?v_85 ?v_25) ?v_105)) (or (or ?v_139 ?v_164) ?v_158)) (or (or ?v_75 ?v_25) P24)) (or (or ?v_188 ?v_4) ?v_128)) (or (or ?v_98 ?v_71) ?v_140)) (or (or ?v_14 ?v_89) ?v_192)) (or (or P1 P39) P30)) (or (or ?v_123 ?v_175) ?v_137)) (or (or P17 P9) ?v_166)) (or (or ?v_171 P2) P36)) (or (or ?v_83 ?v_179) ?v_62)) (or (or P29 (not P36)) ?v_16)) (or (or ?v_54 ?v_139) ?v_31)) (or (or ?v_26 ?v_188) P6)) (or (or ?v_137 ?v_161) ?v_79)) (or (or ?v_18 ?v_58) ?v_53)) (or (or ?v_20 P21) ?v_138)) (or (or ?v_161 ?v_201) ?v_38)) (or (or ?v_101 ?v_118) ?v_25)) (or (or ?v_197 ?v_112) ?v_11)) (or (or ?v_117 ?v_82) ?v_95)) (or (or ?v_120 ?v_96) ?v_119)) (or (or ?v_154 ?v_21) ?v_25)) (or (or P2 ?v_80) P0)) (or (or ?v_9 ?v_150) ?v_128)) (or (or ?v_21 ?v_163) P27)) (or (or ?v_127 ?v_50) ?v_191)) (or (or ?v_84 ?v_82) ?v_8)) (or (or ?v_14 P33) ?v_63)) (or (or ?v_6 ?v_199) ?v_143)) (or (or P32 ?v_132) ?v_175)) (or (or ?v_110 ?v_31) ?v_175)) (or (or P31 ?v_191) ?v_194)) (or (or ?v_136 P22) ?v_178)) (or (or ?v_146 ?v_105) ?v_85)) (or (or P14 ?v_7) ?v_159)) (or (or ?v_163 ?v_90) ?v_84)) (or (or ?v_95 ?v_0) ?v_80)) (or (or ?v_200 ?v_16) ?v_197)) (or (or ?v_181 ?v_150) ?v_28)) (or (or ?v_105 ?v_16) ?v_188)) (or (or ?v_60 P5) ?v_143)) (or (or ?v_103 ?v_32) ?v_164)) (or (or ?v_14 ?v_36) ?v_127)) (or (or ?v_145 ?v_75) ?v_85)) (or (or ?v_79 ?v_193) ?v_99)) (or (or P25 ?v_201) ?v_186)) (or (or ?v_67 ?v_109) P2)) (or (or ?v_3 ?v_21) ?v_70)) (or (or ?v_193 ?v_78) ?v_130)) (or (or ?v_101 ?v_75) ?v_166)) (or (or ?v_62 ?v_41) ?v_21)) (or (or ?v_85 ?v_141) ?v_22)) (or (or ?v_123 ?v_21) P29)) (or (or ?v_156 ?v_12) ?v_115)) (or (or P13 ?v_173) P31)) (or (or ?v_58 ?v_182) ?v_192)) (or (or P33 ?v_116) ?v_187)) (or (or ?v_162 ?v_202) ?v_187)) (or (or ?v_147 ?v_7) ?v_71)) (or (or ?v_72 P18) ?v_13)) (or (or ?v_162 ?v_66) ?v_201)) (or (or P21 ?v_114) ?v_45)) (or (or ?v_14 ?v_2) ?v_98)) (or (or ?v_134 ?v_189) ?v_202)) (or (or ?v_126 ?v_171) ?v_49)) (or (or ?v_30 P5) ?v_172)) (or (or ?v_48 ?v_126) ?v_3)) (or (or ?v_58 ?v_9) ?v_12)) (or (or ?v_107 ?v_146) ?v_113)) (or (or P20 ?v_188) ?v_68)) (or (or P35 ?v_80) ?v_160)) (or (or ?v_135 ?v_126) ?v_72)) (or (or ?v_161 ?v_12) ?v_197)) (or (or P18 ?v_133) ?v_117)))))))))))))))))))))))
(check-sat)
(exit)
